************************************************************************
file with basedata            : md353_.bas
initial value random generator: 1345279598
************************************************************************
projects                      :  1
jobs (incl. supersource/sink ):  22
horizon                       :  158
RESOURCES
  - renewable                 :  2   R
  - nonrenewable              :  2   N
  - doubly constrained        :  0   D
************************************************************************
PROJECT INFORMATION:
pronr.  #jobs rel.date duedate tardcost  MPM-Time
    1     20      0       22        1       22
************************************************************************
PRECEDENCE RELATIONS:
jobnr.    #modes  #successors   successors
   1        1          3           2   3   4
   2        3          3           6   7  12
   3        3          3           6   7  12
   4        3          2           5   6
   5        3          1          19
   6        3          3           8  13  17
   7        3          1           9
   8        3          3          10  11  16
   9        3          3          14  15  20
  10        3          2          14  18
  11        3          2          14  15
  12        3          1          17
  13        3          2          15  16
  14        3          2          19  21
  15        3          1          18
  16        3          1          20
  17        3          3          18  19  20
  18        3          1          21
  19        3          1          22
  20        3          1          22
  21        3          1          22
  22        1          0        
************************************************************************
REQUESTS/DURATIONS:
jobnr. mode duration  R 1  R 2  N 1  N 2
------------------------------------------------------------------------
  1      1     0       0    0    0    0
  2      1     4       4    0    6    9
         2     5       0    7    6    9
         3     8       1    0    6    9
  3      1     3       0    4    7    8
         2     8       0    4    6    7
         3    10       0    3    6    2
  4      1     2       9    0   10    4
         2     7       0   10    9    4
         3     9       9    0    7    1
  5      1     5       6    0    9    5
         2     5       0    7    9    5
         3     9       0    2    9    2
  6      1     1       0    7    7   10
         2     4       0    4    6   10
         3     6       0    3    5   10
  7      1     1      10    0    9    6
         2     6       8    0    7    4
         3     8       0    5    5    3
  8      1     5       0    7    8    6
         2     9       0    5    6    3
         3    10       7    0    4    3
  9      1     3       0    5    9    9
         2     5       0    3    6    7
         3     8       0    3    6    5
 10      1     1       6    0    3    5
         2     1       0    8    3    5
         3     8       6    0    2    3
 11      1     4       0    7   10    7
         2     4       8    0   10    7
         3     9       4    0    9    4
 12      1     3       0   10    1    9
         2     4       0   10    1    8
         3     5       0    9    1    6
 13      1     6       0    9    8    3
         2     7       2    0    8    2
         3     8       0    5    7    2
 14      1     4      10    0    8    4
         2     5       8    0    6    3
         3     7       0    1    4    1
 15      1     1       2    0    8    6
         2     3       0    5    8    5
         3     4       2    0    6    5
 16      1     2       3    0    6    8
         2     9       1    0    1    8
         3     9       2    0    1    7
 17      1     2       0    7    4    9
         2     3       1    0    3    4
         3     4       0    4    2    1
 18      1     5       8    0    7    9
         2    10       2    0    4    9
         3    10       0    5    2    9
 19      1     1       8    0    9    8
         2     5       8    0    9    7
         3     7       0    5    8    7
 20      1     1       7    0    4    7
         2     1       8    0    4    6
         3    10       6    0    2    5
 21      1     2       0    4    6    8
         2     4       5    0    6    7
         3     9       5    0    6    4
 22      1     0       0    0    0    0
************************************************************************
RESOURCEAVAILABILITIES:
  R 1  R 2  N 1  N 2
    9   16  108  102
************************************************************************
MAXIMAL LAGS:
from  to  type  delay
    1   12   ES      0
    1    2   ES      0
    2   12   ES      0
    1    3   ES      0
    3   12   ES      0
    1    4   ES      0
    4   12   ES      0
    1    5   ES      0
    5   12   ES      0
    1    6   ES      0
    6   12   ES      0
    1    7   ES      0
    7   12   ES      0
    1    8   ES      0
    8   12   ES      0
    1    9   ES      0
    9   12   ES      0
    1   10   ES      0
   10   12   ES      0
    1   11   ES      0
   11   12   ES      0
    1   12   ES      0
    2    6   SS     -2
    2    6   SE      4
    2    6   ES      9
    2    6   EE      3
    2    7   SS    -12
    2    7   SE    -10
    2    7   ES     -7
    2    7   EE    -12
    3    6   SS     11
    3    6   SE     11
    3    6   ES     -3
    3    6   EE      9
    3    7   SS      9
    3    7   SE     -8
    3    7   ES     -3
    3    7   EE     -7
    4    5   SS      9
    4    5   SE     -1
    4    5   ES     -6
    4    5   EE      1
    4    6   SS      7
    4    6   SE    -12
    4    6   ES      6
    4    6   EE    -10
    5   19   SS     -8
    5   19   SE     -5
    5   19   ES      2
    5   19   EE     -1
    6    8   SS     -5
    6    8   SE    -12
    6    8   ES     -7
    6    8   EE      5
    6   13   SS     -4
    6   13   SE      6
    6   13   ES      2
    6   13   EE      0
    6   17   SS     10
    6   17   SE    -11
    6   17   ES     -5
    6   17   EE      7
    7    9   SS      0
    7    9   SE      8
    7    9   ES     12
    7    9   EE      2
    8   10   SS    -12
    8   10   SE     -8
    8   10   ES     12
    8   10   EE     -3
    8   11   SS     -5
    8   11   SE      0
    8   11   ES     -2
    8   11   EE     -8
    8   16   SS     12
    8   16   SE     10
    8   16   ES     -3
    8   16   EE    -11
    9   14   SS     -1
    9   14   SE     -1
    9   14   ES     -5
    9   14   EE     10
    9   15   SS     12
    9   15   SE      1
    9   15   ES     -4
    9   15   EE      4
    9   20   SS     12
    9   20   SE    -10
    9   20   ES     10
    9   20   EE      5
   10   14   SS      2
   10   14   SE     -1
   10   14   ES     12
   10   14   EE     -4
   10   18   SS      9
   10   18   SE    -12
   10   18   ES     -5
   10   18   EE      0
   11   14   SS     10
   11   14   SE     -4
   11   14   ES      4
   11   14   EE      5
   11   15   SS     -8
   11   15   SE     -9
   11   15   ES     -1
   11   15   EE     10
   12   17   SS      6
   12   17   SE      2
   12   17   ES      3
   12   17   EE     -5
   13   15   SS      4
   13   15   SE     -1
   13   15   ES     -4
   13   15   EE     10
   13   16   SS      0
   13   16   SE      1
   13   16   ES     -8
   13   16   EE     -6
   14   19   SS     -8
   14   19   SE     -5
   14   19   ES      1
   14   19   EE    -11
   14   21   SS      0
   14   21   SE      0
   14   21   ES      2
   14   21   EE      7
   15   18   SS     12
   15   18   SE      7
   15   18   ES      4
   15   18   EE      1
   16   20   SS     -3
   16   20   SE      6
   16   20   ES    -10
   16   20   EE     -8
   17   18   SS     -1
   17   18   SE      6
   17   18   ES     -3
   17   18   EE      6
   17   19   SS      3
   17   19   SE      9
   17   19   ES     -7
   17   19   EE     -8
   17   20   SS     11
   17   20   SE    -11
   17   20   ES     -4
   17   20   EE     -7
   18   21   SS      7
   18   21   SE      4
   21   18   SE      0
   18   21   ES      0
   18   21   EE     -7
   19   22   SS     -7
   19   22   SE      1
   19   22   ES      6
   19   22   EE      7
   20   22   SS     -8
   20   22   SE    -12
   20   22   ES      0
   20   22   EE      1
   21   22   SS      0
   21   22   SE    -10
   21   22   ES      2
   21   22   EE      6
************************************************************************
